/*********************************************
 * OPL 12.6.0.0 Data
 * Author: Adrian Rodriguez Bazaga, Pau Rodriguez Esmerats
 * Creation Date: 22/11/2017 at 18:56:20
 *********************************************/

nNurses=106;
maxConsec=2;
maxPresence=7;
maxHours=5;
minHours=1;
demand= [18 30 40 32 30 40 32 31 33 16 2 3 4 3 4 2 4 1 2 0 19 32 13 26  ];
